data;


param FN:= 8;
param D:= 100;
param U_Original:=
         1         1        1.022937e+00
         2         1        2.831630e-01
         3         1       -3.271481e-01
         4         1       -1.948468e+00
         5         1        7.359486e-01
         6         1       -1.437382e-02
         7         1       -7.555055e-01
         8         1        3.396571e-01
         9         1        2.804554e+00
        10         1        6.143815e-01
        11         1       -1.633177e+00
        12         1        4.276561e-02
        13         1        7.533631e-01
        14         1        8.343345e-01
        15         1       -1.429518e-01
        16         1       -3.477743e-01
        17         1       -1.350187e+00
        18         1        3.737617e-01
        19         1       -1.137042e+00
        20         1        3.353639e-01
        21         1       -1.399787e+00
        22         1        7.678359e-01
        23         1        1.105571e+00
        24         1       -5.138074e-01
        25         1        2.219369e+00
        26         1       -2.658472e-01
        27         1       -3.994538e-01
        28         1        1.257469e+00
        29         1       -2.241584e-01
        30         1       -2.003554e-01
        31         1       -1.520103e-01
        32         1       -7.750725e-01
        33         1       -1.333635e+00
        34         1        4.555245e-01
        35         1        2.493857e-01
        36         1        7.658620e-01
        37         1        9.228274e-01
        38         1       -3.075589e-01
        39         1       -5.195526e-02
        40         1        1.754770e+00
        41         1       -8.615700e-01
        42         1       -4.503265e-01
        43         1        3.101095e-01
        44         1       -6.697981e-01
        45         1       -1.385065e-01
        46         1       -1.969813e-01
        47         1       -1.855986e+00
        48         1        1.296223e+00
        49         1       -4.377907e-01
        50         1       -8.779012e-01
        51         1        6.236521e-01
        52         1        8.918638e-01
        53         1       -1.374834e-01
        54         1       -9.354155e-02
        55         1        9.408212e-01
        56         1        1.855689e+00
        57         1        8.386405e-02
        58         1       -1.363910e+00
        59         1        1.350028e+00
        60         1       -6.108774e-01
        61         1       -1.919801e-01
        62         1        1.330741e+00
        63         1        2.635653e+00
        64         1        1.020632e+00
        65         1       -6.236907e-01
        66         1        2.201697e+00
        67         1        4.604847e-02
        68         1       -1.975096e+00
        69         1       -8.319334e-01
        70         1        9.736007e-01
        71         1       -3.989838e-01
        72         1       -7.744557e-01
        73         1       -5.746263e-01
        74         1        1.544386e+00
        75         1       -1.758818e+00
        76         1        8.917498e-01
        77         1       -9.359356e-01
        78         1       -3.932669e-01
        79         1        1.741755e-01
        80         1       -9.213326e-01
        81         1       -2.168978e-02
        82         1       -5.455820e-01
        83         1       -5.151317e-01
        84         1        3.746587e-01
        85         1       -6.718034e-01
        86         1       -7.142120e-01
        87         1       -1.009963e+00
        88         1       -8.915907e-01
        89         1        3.606862e-01
        90         1       -2.369410e-02
        91         1        1.043613e+00
        92         1        3.178805e+00
        93         1        4.930289e-02
        94         1        1.975246e+00
        95         1        6.762992e-01
        96         1       -1.255592e-01
        97         1       -5.030423e-01
        98         1        1.372718e+00
        99         1        6.169519e-01
       100         1        1.133969e+00
         1         2        2.831369e-01
         2         2        1.021323e+00
         3         2        9.847019e-02
         4         2        1.925922e-01
         5         2        5.792487e-01
         6         2        2.301250e-01
         7         2        4.130713e-01
         8         2        1.584472e-01
         9         2       -3.395800e-02
        10         2       -5.609170e-01
        11         2       -8.671812e-01
        12         2        2.071191e+00
        13         2        2.596147e+00
        14         2       -7.807109e-01
        15         2        2.879157e+00
        16         2        1.633267e-01
        17         2        2.017222e-01
        18         2       -5.792203e-01
        19         2        1.226208e+00
        20         2       -1.443553e+00
        21         2       -8.584085e-02
        22         2       -2.907933e-01
        23         2       -6.884071e-01
        24         2       -1.162922e+00
        25         2       -1.231957e+00
        26         2        1.474669e-01
        27         2        3.335552e-01
        28         2       -5.038890e-02
        29         2        1.995486e-01
        30         2       -5.818809e-01
        31         2       -6.187421e-01
        32         2        1.991445e-01
        33         2        3.043279e+00
        34         2        9.422038e-02
        35         2        5.660320e-01
        36         2        2.578465e-01
        37         2       -8.109993e-01
        38         2       -5.755255e-01
        39         2       -9.420012e-01
        40         2       -1.037711e+00
        41         2       -1.936699e+00
        42         2       -1.134681e+00
        43         2       -1.385944e+00
        44         2       -3.536252e-02
        45         2       -6.930045e-01
        46         2       -7.947586e-01
        47         2       -1.028167e+00
        48         2       -9.267366e-01
        49         2        7.708923e-01
        50         2       -4.538644e-01
        51         2        1.699549e-02
        52         2        4.858684e-01
        53         2       -5.333580e-01
        54         2        2.737616e-01
        55         2        2.244990e+00
        56         2        1.392963e+00
        57         2        1.185046e+00
        58         2        3.182776e-01
        59         2        8.042234e-01
        60         2       -3.164112e-01
        61         2        6.643729e-01
        62         2       -7.311397e-01
        63         2       -9.300883e-01
        64         2       -4.571372e-01
        65         2       -6.767244e-01
        66         2        8.490774e-01
        67         2       -5.934009e-01
        68         2       -2.106796e-01
        69         2       -1.287430e+00
        70         2        9.455513e-01
        71         2       -5.846622e-01
        72         2       -2.920148e-01
        73         2        1.369844e+00
        74         2       -1.087941e+00
        75         2       -3.335378e-01
        76         2        1.774705e+00
        77         2        2.831317e-02
        78         2       -2.564973e+00
        79         2       -1.142707e+00
        80         2        7.791211e-01
        81         2        1.797055e+00
        82         2       -4.616345e-01
        83         2       -4.661802e-01
        84         2       -6.715692e-01
        85         2       -1.703297e+00
        86         2       -6.766441e-01
        87         2        1.181225e+00
        88         2       -2.025132e+00
        89         2        2.060408e+00
        90         2        3.875245e-01
        91         2       -4.688824e-01
        92         2        9.485042e-01
        93         2        2.113172e-01
        94         2       -1.305098e-01
        95         2       -1.221794e-01
        96         2       -1.215115e-01
        97         2        8.551597e-02
        98         2        6.597286e-01
        99         2        1.811059e-01
       100         2       -2.453479e+00
         1         3        1.035573e+00
         2         3       -1.435533e-01
         3         3       -9.473923e-02
         4         3        6.774580e-01
         5         3       -2.639587e-01
         6         3        1.675379e+00
         7         3        6.073407e-01
         8         3        4.847504e-01
         9         3       -2.339748e-03
        10         3        5.544971e-01
        11         3       -1.322490e-01
        12         3        1.912217e+00
        13         3        3.918713e-01
        14         3       -4.796083e-02
        15         3        1.348352e+00
        16         3        4.386497e-01
        17         3       -1.321005e-01
        18         3       -8.397541e-01
        19         3        8.580562e-01
        20         3        5.302548e-01
        21         3       -2.324973e-01
        22         3       -2.280748e+00
        23         3        1.163949e-01
        24         3        4.917610e-01
        25         3       -1.525626e-01
        26         3       -1.342940e+00
        27         3        3.785914e-01
        28         3        1.331664e+00
        29         3        3.491143e-01
        30         3       -2.950853e+00
        31         3       -4.454180e-01
        32         3        5.636593e-01
        33         3        2.318624e+00
        34         3        1.639817e-01
        35         3       -1.462672e+00
        36         3        4.369623e-01
        37         3       -1.069580e+00
        38         3       -4.582869e-01
        39         3        4.654390e-02
        40         3       -1.315003e+00
        41         3        8.353659e-01
        42         3        6.232550e-01
        43         3        7.110230e-01
        44         3        8.058734e-01
        45         3        5.926168e-01
        46         3        6.507373e-02
        47         3       -1.202621e+00
        48         3        3.781444e-01
        49         3       -8.151774e-01
        50         3       -1.114895e+00
        51         3       -1.308105e+00
        52         3        6.033258e-01
        53         3        1.787259e+00
        54         3        8.158672e-01
        55         3       -4.439356e-01
        56         3       -7.504140e-01
        57         3        5.691821e-02
        58         3       -3.062195e-01
        59         3        5.424016e-01
        60         3       -6.729968e-01
        61         3        1.128977e-01
        62         3        8.226416e-01
        63         3        1.101730e+00
        64         3       -1.842855e+00
        65         3        7.756606e-01
        66         3        1.107983e+00
        67         3        4.147412e-02
        68         3       -1.787765e+00
        69         3        1.617185e+00
        70         3       -1.127138e+00
        71         3        1.605857e-01
        72         3        2.799511e-01
        73         3       -1.313706e+00
        74         3        1.210598e-01
        75         3        2.834759e+00
        76         3        1.559078e+00
        77         3       -1.189137e+00
        78         3       -2.471075e+00
        79         3        1.556430e+00
        80         3        1.675972e+00
        81         3       -3.152559e-02
        82         3       -2.084535e-01
        83         3        1.057554e+00
        84         3        1.219858e+00
        85         3       -6.519130e-02
        86         3        1.361622e-01
        87         3       -1.299580e+00
        88         3        7.918669e-02
        89         3       -7.413972e-01
        90         3        7.292954e-01
        91         3       -2.131906e+00
        92         3       -1.703850e+00
        93         3       -2.342725e-01
        94         3        1.982273e+00
        95         3        5.706102e-01
        96         3        1.393962e+00
        97         3       -4.030641e-01
        98         3       -8.555127e-01
        99         3        2.122770e+00
       100         3        2.403153e+00
         1         4        1.590870e+00
         2         4        5.082144e-01
         3         4        7.588726e-01
         4         4       -3.034004e-01
         5         4       -1.638417e+00
         6         4       -1.174294e+00
         7         4       -1.023424e+00
         8         4        1.049740e+00
         9         4       -6.559132e-01
        10         4       -1.423779e-01
        11         4       -8.467841e-01
        12         4        3.644840e-01
        13         4        8.409316e-01
        14         4       -6.843928e-01
        15         4       -1.520037e-01
        16         4        1.151021e+00
        17         4        4.796407e-01
        18         4       -7.616268e-01
        19         4        5.309568e-01
        20         4       -2.195087e-01
        21         4        2.266440e+00
        22         4       -7.147822e-01
        23         4        3.789397e-01
        24         4        2.147369e+00
        25         4       -1.148400e+00
        26         4       -3.118564e-03
        27         4       -4.600615e-01
        28         4       -2.355865e-01
        29         4        5.262973e-01
        30         4       -2.670080e-02
        31         4        1.428204e+00
        32         4        4.574708e-01
        33         4       -9.928840e-01
        34         4       -1.087793e-01
        35         4        1.537666e-01
        36         4        3.249761e+00
        37         4        1.301831e+00
        38         4       -1.553712e+00
        39         4        7.071430e-01
        40         4       -5.518011e-01
        41         4       -1.709116e-01
        42         4        6.869588e-01
        43         4       -3.505814e-01
        44         4        3.003954e+00
        45         4        8.098938e-01
        46         4       -1.694468e+00
        47         4       -6.183920e-01
        48         4       -5.076266e-01
        49         4        8.979526e-01
        50         4       -1.180884e+00
        51         4       -1.046924e+00
        52         4        8.208290e-02
        53         4        7.216767e-01
        54         4        1.643765e-01
        55         4       -5.022285e-01
        56         4       -4.381059e-01
        57         4        9.356631e-01
        58         4       -1.374928e-01
        59         4       -1.878211e+00
        60         4       -9.125405e-01
        61         4        6.692216e-02
        62         4        4.540836e-01
        63         4       -2.139352e+00
        64         4       -9.104046e-01
        65         4       -7.652126e-01
        66         4        1.577845e-01
        67         4        1.180960e+00
        68         4       -2.088916e-01
        69         4       -6.009708e-01
        70         4       -9.541608e-01
        71         4        4.245741e-01
        72         4        8.533674e-01
        73         4       -3.073904e-01
        74         4        1.233557e-01
        75         4        8.175768e-02
        76         4       -6.271663e-01
        77         4        1.764330e-01
        78         4        6.118176e-01
        79         4        1.145233e+00
        80         4       -1.383719e+00
        81         4       -1.625706e+00
        82         4        1.004932e+00
        83         4        1.706220e+00
        84         4        1.112477e-01
        85         4        3.862250e-01
        86         4       -1.538545e-02
        87         4       -6.714436e-01
        88         4       -2.555651e-01
        89         4        6.586079e-01
        90         4       -6.703207e-01
        91         4        4.532749e-01
        92         4        1.856236e+00
        93         4        1.795963e+00
        94         4       -4.726352e-02
        95         4        1.193332e+00
        96         4       -2.310525e-01
        97         4        5.001999e-01
        98         4       -1.105848e+00
        99         4       -9.245838e-01
       100         4        1.360544e+00
         1         5       -3.015995e-01
         2         5        3.870034e-01
         3         5       -2.362461e-01
         4         5       -7.145340e-01
         5         5        3.551698e-01
         6         5        2.375946e-02
         7         5        1.813298e+00
         8         5       -6.908806e-01
         9         5        1.509428e-01
        10         5       -2.403040e+00
        11         5        8.418110e-01
        12         5       -3.826630e-01
        13         5       -7.747069e-01
        14         5       -3.128206e-01
        15         5        1.555617e-01
        16         5       -1.254937e-01
        17         5        6.408378e-01
        18         5        6.800146e-01
        19         5        1.375479e+00
        20         5        1.298130e+00
        21         5       -7.413609e-01
        22         5        2.438461e-01
        23         5        9.742408e-02
        24         5        4.217682e-01
        25         5        9.958009e-01
        26         5        7.124656e-01
        27         5       -1.645282e+00
        28         5       -5.500282e-01
        29         5        5.693403e-01
        30         5       -1.549247e-01
        31         5        4.154793e-01
        32         5       -8.428627e-01
        33         5       -5.149975e-01
        34         5       -6.561309e-01
        35         5       -5.668924e-01
        36         5       -6.781450e-01
        37         5        8.203180e-02
        38         5       -3.257976e-01
        39         5       -8.108725e-01
        40         5       -1.632898e+00
        41         5        1.766590e+00
        42         5        3.786995e-01
        43         5       -2.001850e+00
        44         5       -3.051182e-02
        45         5       -1.955388e-01
        46         5        9.333537e-01
        47         5       -1.424602e+00
        48         5       -7.538618e-01
        49         5       -1.444306e+00
        50         5        7.357878e-02
        51         5       -5.095128e-02
        52         5        1.705540e-01
        53         5       -6.808760e-01
        54         5        4.484773e-02
        55         5       -4.888621e-02
        56         5        1.526066e-01
        57         5       -1.314302e+00
        58         5        1.482157e+00
        59         5       -3.667593e-01
        60         5        5.969212e-01
        61         5        1.811372e-01
        62         5        1.159661e+00
        63         5       -1.672341e+00
        64         5       -7.811363e-01
        65         5       -1.212698e+00
        66         5       -1.753290e+00
        67         5       -1.491024e-02
        68         5       -7.356990e-01
        69         5        9.991089e-01
        70         5        1.145499e+00
        71         5       -6.077954e-01
        72         5       -1.325426e+00
        73         5       -1.813146e+00
        74         5        2.829575e-01
        75         5       -9.601101e-01
        76         5        1.344561e+00
        77         5        1.307479e-01
        78         5       -6.315466e-01
        79         5       -1.697782e+00
        80         5       -4.459258e-01
        81         5       -4.456776e-01
        82         5       -9.930219e-01
        83         5       -2.265009e+00
        84         5       -1.092017e+00
        85         5        7.011338e-01
        86         5        1.398910e-01
        87         5        1.828711e+00
        88         5        1.013980e+00
        89         5       -4.178810e-01
        90         5        1.198120e+00
        91         5       -1.358612e+00
        92         5        9.716974e-02
        93         5        1.250682e+00
        94         5       -5.087348e-01
        95         5        3.743085e-01
        96         5        2.796866e-02
        97         5        2.160862e+00
        98         5        3.807990e-01
        99         5        7.622271e-01
       100         5        1.498991e-01
;
param X_Original:=
    1        1.335306e+00
    2       -1.788008e+00
    3        6.738406e-02
    4       -8.406559e-02
    5        2.473651e-01
    6        1.054246e+00
    7        1.772213e+00
    8       -8.015394e-01
    9       -9.985531e-01
   10       -1.124315e-01
   11       -1.806525e-01
   12       -4.306322e-01
   13        1.347979e+00
   14       -4.810846e-01
   15        1.274471e+00
   16        8.440216e-01
   17       -1.080501e+00
   18       -1.146662e+00
   19        6.933456e-01
   20        1.031167e+00
   21        1.976576e+00
   22       -1.045692e+00
   23        1.197199e+00
   24        3.818597e-01
   25       -2.008473e+00
   26        4.537987e-01
   27        2.070690e+00
   28       -3.878165e-01
   29       -5.446266e-02
   30       -8.438433e-01
   31       -2.069349e+00
   32        5.950285e-01
   33        1.784090e-01
   34       -1.428482e+00
   35        7.256122e-01
   36        3.136545e-01
   37        1.129515e+00
   38        1.356639e-01
   39       -2.586049e-01
   40       -1.261787e+00
   41       -2.945966e+00
   42        5.369872e-01
   43       -1.529108e+00
   44       -2.012322e+00
   45       -2.128680e+00
   46       -4.422068e-01
   47       -8.673990e-01
   48       -5.646840e-01
   49        8.156886e-01
   50       -1.151490e+00
   51       -1.471036e+00
   52       -1.859551e+00
   53       -8.973149e-01
   54        1.231536e+00
   55        1.247321e-01
   56        7.668644e-01
   57       -8.946034e-01
   58       -6.464016e-01
   59        9.511453e-01
   60        1.445390e-01
   61       -2.092811e+00
   62        1.370187e+00
   63       -1.490681e+00
   64       -1.397971e+00
   65        4.824387e-01
   66        2.562004e-01
   67        7.181004e-01
   68       -9.056676e-01
   69       -7.754425e-01
   70       -7.574608e-01
   71       -3.422405e-01
   72       -2.180896e-01
   73        2.388893e+00
   74        6.159057e-01
   75        6.799224e-02
   76       -2.294317e+00
   77        3.000890e-02
   78       -8.603734e-01
   79        9.090678e-01
   80       -4.320162e-01
   81        2.933067e-01
   82        1.362291e+00
   83        3.229458e-01
   84       -1.637529e-01
   85        1.133816e+00
   86       -6.744340e-01
   87        4.109330e-01
   88       -6.874445e-01
   89        9.289974e-02
   90       -7.191640e-01
   91        3.906933e-01
   92       -3.712147e+00
   93       -1.337655e+00
   94        5.033693e-01
   95        1.714417e+00
   96        7.073178e-01
   97        1.393207e+00
   98       -5.791232e-01
   99       -1.849273e+00
  100       -1.170640e+00
;
param outliervec_original :=
    1    1
    2    1
    3    1
    4    1
    5    1
    6    1
    7    0
    8    1
    9    1
   10    1
   11    1
   12    1
   13    1
   14    1
   15    1
   16    1
   17    1
   18    1
   19    1
   20    1
   21    1
   22    1
   23    1
   24    1
   25    1
   26    1
   27    0
   28    1
   29    1
   30    1
   31    0
   32    1
   33    1
   34    1
   35    0
   36    1
   37    1
   38    1
   39    1
   40    1
   41    0
   42    1
   43    1
   44    1
   45    1
   46    0
   47    1
   48    1
   49    1
   50    1
   51    1
   52    1
   53    0
   54    1
   55    1
   56    1
   57    1
   58    1
   59    1
   60    1
   61    1
   62    1
   63    1
   64    0
   65    1
   66    1
   67    1
   68    1
   69    1
   70    1
   71    1
   72    1
   73    1
   74    1
   75    1
   76    1
   77    1
   78    1
   79    1
   80    1
   81    1
   82    1
   83    1
   84    1
   85    1
   86    1
   87    1
   88    1
   89    1
   90    1
   91    1
   92    0
   93    0
   94    1
   95    1
   96    1
   97    1
   98    1
   99    1
  100    1
;
param d:= 55;
param r:=5;
param p:=0.900000;
param M:=1000;
param U:=
         1         1        1.022937e+00
         2         1       -3.271481e-01
         3         1       -1.948468e+00
         4         1        2.804554e+00
         5         1        6.143815e-01
         6         1        7.533631e-01
         7         1        8.343345e-01
         8         1       -1.429518e-01
         9         1       -3.477743e-01
        10         1        3.737617e-01
        11         1       -1.137042e+00
        12         1       -1.399787e+00
        13         1        7.678359e-01
        14         1        2.219369e+00
        15         1       -2.658472e-01
        16         1        1.257469e+00
        17         1       -2.241584e-01
        18         1       -2.003554e-01
        19         1       -7.750725e-01
        20         1       -1.333635e+00
        21         1        2.493857e-01
        22         1        9.228274e-01
        23         1       -5.195526e-02
        24         1        1.754770e+00
        25         1       -4.503265e-01
        26         1        3.101095e-01
        27         1       -1.855986e+00
        28         1        1.296223e+00
        29         1       -4.377907e-01
        30         1       -8.779012e-01
        31         1        6.236521e-01
        32         1        9.408212e-01
        33         1       -1.363910e+00
        34         1        2.635653e+00
        35         1        1.020632e+00
        36         1        2.201697e+00
        37         1        4.604847e-02
        38         1       -1.975096e+00
        39         1       -8.319334e-01
        40         1        9.736007e-01
        41         1       -3.989838e-01
        42         1       -1.758818e+00
        43         1       -9.359356e-01
        44         1       -3.932669e-01
        45         1        1.741755e-01
        46         1       -9.213326e-01
        47         1       -5.455820e-01
        48         1        3.746587e-01
        49         1       -7.142120e-01
        50         1       -8.915907e-01
        51         1       -2.369410e-02
        52         1        1.043613e+00
        53         1        1.975246e+00
        54         1        6.762992e-01
        55         1        1.372718e+00
         1         2        2.831369e-01
         2         2        9.847019e-02
         3         2        1.925922e-01
         4         2       -3.395800e-02
         5         2       -5.609170e-01
         6         2        2.596147e+00
         7         2       -7.807109e-01
         8         2        2.879157e+00
         9         2        1.633267e-01
        10         2       -5.792203e-01
        11         2        1.226208e+00
        12         2       -8.584085e-02
        13         2       -2.907933e-01
        14         2       -1.231957e+00
        15         2        1.474669e-01
        16         2       -5.038890e-02
        17         2        1.995486e-01
        18         2       -5.818809e-01
        19         2        1.991445e-01
        20         2        3.043279e+00
        21         2        5.660320e-01
        22         2       -8.109993e-01
        23         2       -9.420012e-01
        24         2       -1.037711e+00
        25         2       -1.134681e+00
        26         2       -1.385944e+00
        27         2       -1.028167e+00
        28         2       -9.267366e-01
        29         2        7.708923e-01
        30         2       -4.538644e-01
        31         2        1.699549e-02
        32         2        2.244990e+00
        33         2        3.182776e-01
        34         2       -9.300883e-01
        35         2       -4.571372e-01
        36         2        8.490774e-01
        37         2       -5.934009e-01
        38         2       -2.106796e-01
        39         2       -1.287430e+00
        40         2        9.455513e-01
        41         2       -5.846622e-01
        42         2       -3.335378e-01
        43         2        2.831317e-02
        44         2       -2.564973e+00
        45         2       -1.142707e+00
        46         2        7.791211e-01
        47         2       -4.616345e-01
        48         2       -6.715692e-01
        49         2       -6.766441e-01
        50         2       -2.025132e+00
        51         2        3.875245e-01
        52         2       -4.688824e-01
        53         2       -1.305098e-01
        54         2       -1.221794e-01
        55         2        6.597286e-01
         1         3        1.035573e+00
         2         3       -9.473923e-02
         3         3        6.774580e-01
         4         3       -2.339748e-03
         5         3        5.544971e-01
         6         3        3.918713e-01
         7         3       -4.796083e-02
         8         3        1.348352e+00
         9         3        4.386497e-01
        10         3       -8.397541e-01
        11         3        8.580562e-01
        12         3       -2.324973e-01
        13         3       -2.280748e+00
        14         3       -1.525626e-01
        15         3       -1.342940e+00
        16         3        1.331664e+00
        17         3        3.491143e-01
        18         3       -2.950853e+00
        19         3        5.636593e-01
        20         3        2.318624e+00
        21         3       -1.462672e+00
        22         3       -1.069580e+00
        23         3        4.654390e-02
        24         3       -1.315003e+00
        25         3        6.232550e-01
        26         3        7.110230e-01
        27         3       -1.202621e+00
        28         3        3.781444e-01
        29         3       -8.151774e-01
        30         3       -1.114895e+00
        31         3       -1.308105e+00
        32         3       -4.439356e-01
        33         3       -3.062195e-01
        34         3        1.101730e+00
        35         3       -1.842855e+00
        36         3        1.107983e+00
        37         3        4.147412e-02
        38         3       -1.787765e+00
        39         3        1.617185e+00
        40         3       -1.127138e+00
        41         3        1.605857e-01
        42         3        2.834759e+00
        43         3       -1.189137e+00
        44         3       -2.471075e+00
        45         3        1.556430e+00
        46         3        1.675972e+00
        47         3       -2.084535e-01
        48         3        1.219858e+00
        49         3        1.361622e-01
        50         3        7.918669e-02
        51         3        7.292954e-01
        52         3       -2.131906e+00
        53         3        1.982273e+00
        54         3        5.706102e-01
        55         3       -8.555127e-01
         1         4        1.590870e+00
         2         4        7.588726e-01
         3         4       -3.034004e-01
         4         4       -6.559132e-01
         5         4       -1.423779e-01
         6         4        8.409316e-01
         7         4       -6.843928e-01
         8         4       -1.520037e-01
         9         4        1.151021e+00
        10         4       -7.616268e-01
        11         4        5.309568e-01
        12         4        2.266440e+00
        13         4       -7.147822e-01
        14         4       -1.148400e+00
        15         4       -3.118564e-03
        16         4       -2.355865e-01
        17         4        5.262973e-01
        18         4       -2.670080e-02
        19         4        4.574708e-01
        20         4       -9.928840e-01
        21         4        1.537666e-01
        22         4        1.301831e+00
        23         4        7.071430e-01
        24         4       -5.518011e-01
        25         4        6.869588e-01
        26         4       -3.505814e-01
        27         4       -6.183920e-01
        28         4       -5.076266e-01
        29         4        8.979526e-01
        30         4       -1.180884e+00
        31         4       -1.046924e+00
        32         4       -5.022285e-01
        33         4       -1.374928e-01
        34         4       -2.139352e+00
        35         4       -9.104046e-01
        36         4        1.577845e-01
        37         4        1.180960e+00
        38         4       -2.088916e-01
        39         4       -6.009708e-01
        40         4       -9.541608e-01
        41         4        4.245741e-01
        42         4        8.175768e-02
        43         4        1.764330e-01
        44         4        6.118176e-01
        45         4        1.145233e+00
        46         4       -1.383719e+00
        47         4        1.004932e+00
        48         4        1.112477e-01
        49         4       -1.538545e-02
        50         4       -2.555651e-01
        51         4       -6.703207e-01
        52         4        4.532749e-01
        53         4       -4.726352e-02
        54         4        1.193332e+00
        55         4       -1.105848e+00
         1         5       -3.015995e-01
         2         5       -2.362461e-01
         3         5       -7.145340e-01
         4         5        1.509428e-01
         5         5       -2.403040e+00
         6         5       -7.747069e-01
         7         5       -3.128206e-01
         8         5        1.555617e-01
         9         5       -1.254937e-01
        10         5        6.800146e-01
        11         5        1.375479e+00
        12         5       -7.413609e-01
        13         5        2.438461e-01
        14         5        9.958009e-01
        15         5        7.124656e-01
        16         5       -5.500282e-01
        17         5        5.693403e-01
        18         5       -1.549247e-01
        19         5       -8.428627e-01
        20         5       -5.149975e-01
        21         5       -5.668924e-01
        22         5        8.203180e-02
        23         5       -8.108725e-01
        24         5       -1.632898e+00
        25         5        3.786995e-01
        26         5       -2.001850e+00
        27         5       -1.424602e+00
        28         5       -7.538618e-01
        29         5       -1.444306e+00
        30         5        7.357878e-02
        31         5       -5.095128e-02
        32         5       -4.888621e-02
        33         5        1.482157e+00
        34         5       -1.672341e+00
        35         5       -7.811363e-01
        36         5       -1.753290e+00
        37         5       -1.491024e-02
        38         5       -7.356990e-01
        39         5        9.991089e-01
        40         5        1.145499e+00
        41         5       -6.077954e-01
        42         5       -9.601101e-01
        43         5        1.307479e-01
        44         5       -6.315466e-01
        45         5       -1.697782e+00
        46         5       -4.459258e-01
        47         5       -9.930219e-01
        48         5       -1.092017e+00
        49         5        1.398910e-01
        50         5        1.013980e+00
        51         5        1.198120e+00
        52         5       -1.358612e+00
        53         5       -5.087348e-01
        54         5        3.743085e-01
        55         5        3.807990e-01
;

param theta:=
    1       -1.284181e+00
    2        1.842405e+00
    3        7.246872e-02
    4       -6.563363e-01
    5       -3.723753e-01
;
param X_true:=
    1       -1.648273e+00
    2        1.851133e-01
    3        3.371332e+00
    4       -3.288839e+00
    5       -7.947096e-01
    6        3.581718e+00
    7       -1.948172e+00
    8        5.627631e+00
    9        7.155895e-02
   10       -1.360123e+00
   11        2.919901e+00
   12        4.095604e-01
   13       -1.308556e+00
   14       -4.747510e+00
   15        2.520884e-01
   16       -1.252022e+00
   17        1.235134e-01
   18       -9.542204e-01
   19        1.415942e+00
   20        8.330098e+00
   21        7.256122e-01
   22       -3.641790e+00
   23       -1.828433e+00
   24       -3.291122e+00
   25       -2.059614e+00
   26       -1.924073e+00
   27        1.338491e+00
   28       -2.729778e+00
   29        1.872516e+00
   30        9.591633e-01
   31       -1.584169e-01
   32        3.241624e+00
   33        1.854534e+00
   34       -2.992814e+00
   35       -1.397971e+00
   36       -6.348574e-01
   37       -1.919380e+00
   38        2.429555e+00
   39       -1.165696e+00
   40        6.097323e-01
   41       -6.058544e-01
   42        2.152594e+00
   43        1.001376e+00
   44       -4.566700e+00
   45       -2.335501e+00
   46        3.814249e+00
   47       -4.565971e-01
   48       -1.296379e+00
   49       -3.617671e-01
   50       -2.790515e+00
   51        7.886229e-01
   52       -2.150615e+00
   53       -2.413099e+00
   54       -1.974933e+00
   55       -2.586901e-02
;
param X:=
    1        1.335306e+00
    2        6.738406e-02
    3       -8.406559e-02
    4       -9.985531e-01
    5       -1.124315e-01
    6        1.347979e+00
    7       -4.810846e-01
    8        1.274471e+00
    9        8.440216e-01
   10       -1.146662e+00
   11        6.933456e-01
   12        1.976576e+00
   13       -1.045692e+00
   14       -2.008473e+00
   15        4.537987e-01
   16       -3.878165e-01
   17       -5.446266e-02
   18       -8.438433e-01
   19        5.950285e-01
   20        1.784090e-01
   21        7.256122e-01
   22        1.129515e+00
   23       -2.586049e-01
   24       -1.261787e+00
   25        5.369872e-01
   26       -1.529108e+00
   27       -8.673990e-01
   28       -5.646840e-01
   29        8.156886e-01
   30       -1.151490e+00
   31       -1.471036e+00
   32        1.247321e-01
   33       -6.464016e-01
   34       -1.490681e+00
   35       -1.397971e+00
   36        2.562004e-01
   37        7.181004e-01
   38       -9.056676e-01
   39       -7.754425e-01
   40       -7.574608e-01
   41       -3.422405e-01
   42        6.799224e-02
   43        3.000890e-02
   44       -8.603734e-01
   45        9.090678e-01
   46       -4.320162e-01
   47        1.362291e+00
   48       -1.637529e-01
   49       -6.744340e-01
   50       -6.874445e-01
   51       -7.191640e-01
   52        3.906933e-01
   53        5.033693e-01
   54        1.714417e+00
   55       -5.791232e-01
;
param outliervec:=
    1    1
    2    1
    3    1
    4    1
    5    1
    6    1
    7    1
    8    1
    9    1
   10    1
   11    1
   12    1
   13    1
   14    1
   15    1
   16    1
   17    1
   18    1
   19    1
   20    1
   21    0
   22    1
   23    1
   24    1
   25    1
   26    1
   27    1
   28    1
   29    1
   30    1
   31    1
   32    1
   33    1
   34    1
   35    0
   36    1
   37    1
   38    1
   39    1
   40    1
   41    1
   42    1
   43    1
   44    1
   45    1
   46    1
   47    1
   48    1
   49    1
   50    1
   51    1
   52    1
   53    1
   54    1
   55    1
; 
param greedy_time :=         2.471916e-01
;